sat
(:max-memory         18.15
 :memory             18.15
 :nlsat-propagations 8
 :nlsat-stages       4
 :num-allocs         27194
 :rlimit-count       7952
 :time               0.00
 :total-time         0.01)
